inputs/myTest01.tsp
NAME : myTest01
COMMENT : 6 towns
COMMENT : London, Paris, Roma, Cairo, Hon Kong, Moscow
TYPE : TSP
DIMENSION : 6
EDGE_WEIGHT_TYPE : EUC_2D
NODE_COORD_SECTION
1 51507.35 -127.75
2 48856.61 2352.22
3 41902.78 12496.36
4 30044.41 31235.71
5 22278.31 114174.69
6 55755.82 37617.3
EOF
