inputs/solutions/myTest01.tour
NAME: myTest01.tour
COMMENT: Tour has length 6
TYPE: TOUR
DIMENSION: 21370
TOUR_SECTION
1
2
3
4
5
6
-1
EOF
